TYPE : Vertex Cover
DIMENSION: 21
EDGE_DATA_SECTION:
0 3
0 13
0 20
1 6
1 7
1 8
2 4
2 5
2 9
2 11
2 15
3 5
3 8
3 9
3 12
3 13
3 14
3 15
3 17
3 20
4 5
4 10
4 16
5 9
5 10
5 11
5 12
5 14
5 16
6 16
7 8
7 13
7 16
7 19
8 11
8 15
8 19
8 20
9 12
9 14
9 19
10 12
10 13
10 20
11 13
11 19
12 19
13 17
15 17
-1
VERTEX_DEGREE:
3.0 3.0 5.0 10.0 4.0 9.0 2.0 5.0 7.0 6.0 5.0 5.0 5.0 6.0 3.0 4.0 4.0 3.0 0.0 5.0 4.0
VERTEX_COVER:
3 4 5 6 7 8 9 11 12 13 15 20
EOF
